\* diet *\
Maximize
OBJ: - 480 x_0 - 840 x_1 - 500 x_2
Subject To
r1_0: 1.03 x_0 + 0.455 x_1 + 2.58 x_2 >= 120
r1_1: 0.04 x_0 + 0.45 x_1 + 0.7 x_2 >= 90
r1_2: 0.0007 x_0 + 0.0004 x_1 + 0.0008 x_2 >= 1.2
r2_1: 0.04 x_0 + 0.45 x_1 + 0.7 x_2 <= 2000
r3_0: x_0 <= 720
r3_1: x_1 <= 1260
r3_2: x_2 <= 750
End
